NAME : portcgen-15-7
COMMENT : portcgen N=15, seed=7
TYPE : TSP
DIMENSION : 15
EDGE_WEIGHT_TYPE : EUC_2D
NODE_COORD_SECTION
1 164877 -233190
2 -70045 418026
3 201939 -77715
4 -310049 -326979
5 -436955 111317
6 -22415 -218624
7 -500095 -274911
8 239800 240647
9 -12987 -290926
10 1001 -46951
11 165800 -30536
12 29324 -403293
13 -625861 207701
14 -381624 258009
15 485097 357145
